# wl_data.dat: Pyomo format data file for the warehouse location problem

set N := Harlingen Memphis Ashland ;
set M := NYC LA Chicago Houston;

param d :=
     Harlingen NYC	1956
     Harlingen LA 	1606
     Harlingen Chicago 	1410
     Harlingen Houston 	330
     Memphis   NYC 	1096
     Memphis   LA 	1792
     Memphis   Chicago 	531
     Memphis   Houston 	567
     Ashland   NYC 	485
     Ashland   LA 	2322
     Ashland   Chicago 	324
     Ashland   Houston 	1236
;

param P := 2 ;
